8096
4037
9535
2753
7124
9992
2541
6209
2104
4058
4835
7270
7387
1997
3422
9153
9968
4754
2542
6996
8239
8443
4561
9951
3420
10100
4096
8963
10111
6923
3570
9775
1153
5684
4499
2537
7842
7360
632
6785
9835
5546
9483
3561
4197
6714
5132
6289
8084
2150
4672
